 %NPROC=12
%MEM=500MB
#P M06 6-311G** FREQ 
# GFINPUT IOP(6/7=3)  POP=FULL

RC, from TS  reverse 5

0 2
7                   -0.105254   -0.060299    0.095801
7                   -0.236800   -0.024613    1.218632
7                    0.284443   -0.016213   -1.076568
1                   -0.496831   -0.020203   -1.730394
1                    1.297307    1.425276   -1.574574


