 %NPROC=12
%MEM=500MB
#P M06 6-311G** FREQ 
# GFINPUT IOP(6/7=3)  POP=FULL

RC, from TS  reverse 7

0 2
7                   -0.103615   -0.058391    0.096301
7                   -0.237828   -0.025661    1.218259
7                    0.282502   -0.019384   -1.076018
1                   -0.500930   -0.021291   -1.727483
1                    1.319882    1.458479   -1.586908


