! RKS BP def2-TZVP RI def2/J
! TightSCF Grid5 NoFinalGrid
! Opt
! Freq
! angs
* xyz 0 1
O          0.00000       -0.00000        0.00000
H          0.00000        0.00000        0.96255
C          0.61485        1.19258       -0.44789
C          0.60303        1.17047       -1.96332
H          1.14906        0.29761       -2.32828
H          1.06786        2.07253       -2.36908
H         -0.42489        1.10884       -2.32774
H          0.07472        2.07902       -0.08279
H          1.65042        1.26659       -0.08322
*   
