 $CONTRL SCFTYP=RHF RUNTYP=HESSIAN $END
 $SYSTEM TIMLIM=1 $END
 $GUESS  GUESS=HUCKEL $END
 $BASIS  GBASIS=STO NGAUSS=3 $END
 $DATA
HYDROGEN CYANIDE...STO-3G...INTRINSIC REACTION COORDINATE
C1
CARBON      6.0   0.0000000000    .0000000000    .0159630000
NITROGEN    7.0   0.0000000000    .0000000000   1.1689880000
HYDROGEN    1.0   0.0000000000    .0000000000  -1.0539500000
 $END
