%NPROC=1
%MEM=800MB
#P B3LYP 6-311G** FREQ
# POP=full GFINPUT IOP(6/7=3) 

 point 2 forward    

0 1
6                   -0.046642    0.000000   -0.631106
7                   -0.037706    0.000000    0.554616
1                    1.079257    0.000000   -0.191556



 
 
