%NPROC=1
%MEM=800MB
#P B3LYP 6-311G** FREQ
# POP=full GFINPUT IOP(6/7=3) 

 point 3 forward    

0 1
6                   -0.049584    0.000000   -0.633387
7                   -0.034698    0.000000    0.553581
1                    1.072487    0.000000   -0.150020


