%NPROC=1
%MEM=800MB
#P B3LYP 6-311G** FREQ
# POP=full GFINPUT IOP(6/7=3) 

 point 1 forward    

0 1
6                   -0.044428    0.000000   -0.629378
7                   -0.039958    0.000000    0.555378
1                    1.084182    0.000000   -0.222724


 
 
