 %NPROC=12
%MEM=500MB
#P M06 6-311G** OPT=(TS, CALCFC, NOEIGENTEST, MAXCYC=40) FREQ 
# GFINPUT IOP(6/7=3)  POP=FULL

TS       

0 2
7                   0.031122   -0.071751   -0.001123
7                  -0.004686    0.037648    1.143276
7                   0.466469    0.035715   -1.179508
1                  -0.291120    0.003874   -1.859095
1                   1.382373    1.324587   -1.571387

