 %NPROC=12
%MEM=500MB
#P M06 6-311G** FREQ 
# GFINPUT IOP(6/7=3)  POP=FULL

RC, from TS  2reverse 

0 2
7                   -0.107791   -0.063224    0.095058
7                   -0.235294   -0.023006    1.219449
7                    0.287472   -0.011434   -1.077680
1                   -0.490971   -0.018626   -1.734443
1                    1.263670    1.375608   -1.556108


