 %NPROC=12
%MEM=500MB
#P M06 6-311G** FREQ 
# GFINPUT IOP(6/7=3)  POP=FULL

RC, from TS  3reverse 

0 2
7                   -0.106935   -0.062243    0.095305
7                   -0.235791   -0.023546    1.219141
7                    0.286446   -0.013028   -1.077269
1                   -0.492877   -0.019140   -1.733144
1                    1.274852    1.392144   -1.562272



