 %NPROC=12
%MEM=500MB
#P M06 6-311G** FREQ 
# GFINPUT IOP(6/7=3)  POP=FULL

RC, from TS  reverse 4

0 2
7                   -0.106090   -0.061267    0.095553
7                   -0.236293   -0.024082    1.218868
7                    0.285437   -0.014621   -1.076899
1                   -0.494833   -0.019667   -1.731792
1                    1.286064    1.408701   -1.568422


