 %NPROC=12
%MEM=500MB
#P M06 6-311G** FREQ 
# GFINPUT IOP(6/7=3)  POP=FULL

RC, from TS  reverse 6

0 2
7                   -0.104429   -0.059340    0.096050
7                   -0.237312   -0.025140    1.218429
7                    0.283465   -0.017800   -1.076275
1                   -0.498863   -0.020745   -1.728957
1                    1.308580    1.441870   -1.580736


