 %NPROC=12
%MEM=500MB
#P M06 6-311G** FREQ 
# GFINPUT IOP(6/7=3)  POP=FULL

RC, from TS  reverse 8

0 2
7                   -0.102809   -0.057453    0.096557
7                   -0.238349   -0.026177    1.218120
7                    0.281554   -0.020962   -1.075799
1                   -0.503034   -0.021841   -1.725971
1                    1.331210    1.475099   -1.593092



