%NPROC=1
%MEM=800MB
#P B3LYP 6-311G** FREQ
# POP=full GFINPUT IOP(6/7=3) 

 reactant          

0 1
  6                   0.000000    0.000000    0.000000
  7                   0.000000    0.000000    1.148300
  1                   0.000000    0.000000   -1.068600



 
 
