%NPROC=1
%MEM=800MB
#P B3LYP 6-311G** FREQ
# POP=full GFINPUT IOP(6/7=3) 

 point 2 reverse   

0 1
6                   -0.037663    0.000000   -0.624113
7                   -0.046696    0.000000    0.557604
1                    1.097264    0.000000   -0.316340

 
 
