 %NPROC=12
%MEM=500MB
#P M06 6-311G** FREQ 
# GFINPUT IOP(6/7=3)  POP=FULL

reverse IRC, from TS reverse1 freq

0 2
 7                   -0.133698   -0.087776    0.088096
 7                   -0.222808   -0.009905    1.237144
 7                    0.318911    0.032084   -1.098852
 1                   -0.451139   -0.023684   -1.757853
 1                    0.973183    0.934558   -1.387500

