 %NPROC=12
%MEM=500MB
#P M06 6-311G** FREQ 
# GFINPUT IOP(6/7=3)  POP=FULL

reverse IRC, from TS reverse1 freq

0 2
 7                   -0.144860   -0.095617    0.087053
 7                   -0.217408   -0.005751    1.242741
 7                    0.326074    0.040766   -1.105285
 1                   -0.439507   -0.033610   -1.766015
 1                    0.941825    0.874504   -1.353033

