 %NPROC=12
%MEM=500MB
#P M06 6-311G** FREQ 
# GFINPUT IOP(6/7=3)  POP=FULL

reverse IRC, from TS reverse1 freq

0 2
7                   -0.161221   -0.106630    0.086729
 7                   -0.209011    0.000104    1.247360
 7                    0.332921    0.048056   -1.110612
 1                   -0.421866   -0.044542   -1.778906
 1                    0.942132    0.855443   -1.325236

