 %NPROC=12
%MEM=500MB
#P M06 6-311G** FREQ 
# GFINPUT IOP(6/7=3)  POP=FULL

reverse IRC, from TS reverse1 freq

0 2
 7                   -0.201426   -0.132940    0.087335
 7                   -0.186623    0.014445    1.248692
 7                    0.346404    0.060107   -1.113972
 1                   -0.380901   -0.053413   -1.806384
 1                    0.961990    0.864076   -1.278158

