! RKS BP def2-TZVP RI def2/J
! TightSCF Grid5 NoFinalGrid
! Opt
! Freq
! bohrs
* xyz 0 1
O -1.396288 -0.075107 0.052125
O 1.396289 -0.016261 -0.089970
H -1.775703 1.309756 -1.111179
H 1.775687 0.140443 1.711854
