 $CONTRL SCFTYP=RHF RUNTYP=HESSIAN  $END
 $SYSTEM TIMLIM=5 MEMORY=2000000 $END
 $BASIS  GBASIS=STO NGAUSS=3 $END
 $GUESS  GUESS=HUCKEL $END
 $DATA
HCN TS FREQ
Cs

C           6.0  -0.6451630708  -0.0592749086   0.0000000000
N           7.0   0.5757965236  -0.0281902285   0.0000000000
H           1.0  -0.3184701482   1.0974610142   0.0000000000
 $END
