%NPROC=1
%MEM=800MB
#P B3LYP 6-311G** FREQ
# POP=full GFINPUT IOP(6/7=3) 

 point 1 reverse   

0 1
6                   -0.039945    0.000000   -0.625881
7                   -0.044452    0.000000    0.556872
1                    1.093256    0.000000   -0.285109

 
 
