%NPROC=1
%MEM=800MB
#P B3LYP 6-311G** FREQ
# POP=full GFINPUT IOP(6/7=3) 

 point 3 reverse   

0 1
6                   -0.035355    0.000000   -0.622332
7                   -0.048932    0.000000    0.558327
1                    1.100842    0.000000   -0.347602


 
 
