! RHF SCS-MP2 def2-TZVP
! NumFreq
* xyz 0 1
 C     0.        0.        0.
 H     0.        0.        1.0827
 H     1.0208    0.       -0.36085
 H    -0.5104   -0.88404  -0.36085
 H    -0.5104    0.88404  -0.36085
*
