 %NPROC=12
%MEM=500MB
#P M06 6-311G** FREQ 
# GFINPUT IOP(6/7=3)  POP=FULL

reverse IRC, from TS reverse1 freq

0 2
 7                   -0.118004   -0.074315    0.092010
 7                   -0.230023   -0.017065    1.225480
 7                    0.300577    0.007780   -1.085023
 1                   -0.471414   -0.015525   -1.746341
 1                    1.130599    1.176920   -1.483591

