 %NPROC=12
%MEM=500MB
#P M06 6-311G** FREQ 
# GFINPUT IOP(6/7=3)  POP=FULL

reverse IRC, from TS reverse1 freq

0 2
 7                   -0.122495   -0.078624    0.090669
 7                   -0.227938   -0.014773    1.228940
 7                    0.306404    0.015762   -1.089101
 1                   -0.464629   -0.016323   -1.749981
 1                    1.076198    1.094706   -1.452686

