start h SP   
geometry units angstroms
 H       0.0  0.0  1.0
end
basis
 H library sto-3g
end
dft 
xc b3lyp
mult 2
end
title "H : STO-3G b3lyp  freq "
task dft
