 $CONTRL SCFTYP=UHF RUNTYP=HESSIAN  MULT=2 $END
 $SYSTEM TIMLIM=1 $END
 $GUESS  GUESS=HUCKEL $END
 $BASIS  GBASIS=STO NGAUSS=3 $END
 $DATA
HYDROGEN 
C1
HYDROGEN    1.0   -.0004620071    .0002821165    .0000000000
 $END
