 $CONTRL SCFTYP=RHF RUNTYP=HESSIAN  ICHARG=1 $END
 $SYSTEM TIMLIM=1 $END
 $GUESS  GUESS=HUCKEL $END
 $BASIS  GBASIS=STO NGAUSS=3 $END
 $DATA
2 freq imaginaires
C1
O 8  0.074061   -0.042562    0.050017
C 6  0.040178   -0.102538    1.369910
O 8  0.982408   -0.188837    2.098140
C 6 -1.347880   -0.051338    1.907500
C 6 -2.437387    0.036110    1.137088
C 6 -3.749616    0.074997    1.707797
O 8 -4.753991    0.152896    0.970788
C 6 -4.114368    0.017145    3.183304
N 7 -5.550664    0.184531    3.218794
C 6 -6.075519    1.447043    3.766672
H 1 -6.382502    2.114571    2.966656
H 1 -5.332043    1.949396    4.380354
H 1 -6.939071    1.237768    4.388118
H 1 -6.009115   -0.613468    3.628864
H 1 -3.804606   -0.948354    3.582336
H 1 -3.583423    0.789904    3.737049
H 1 -1.388408   -0.094088    2.986490
H 1 -2.367961    0.076456    0.060213
H 1  0.994900   -0.080481   -0.239892
H 1 -5.531054    0.159801    1.713736
 $END

